n_res = 4;
rc = [ 28, 37, 35, 24 ];
n_tasks = 30;
d = [ 2, 2, 7, 5, 9, 9, 3, 10, 10, 6, 3, 7, 5, 8, 1, 7, 3, 3, 8, 9, 6, 3, 6, 7, 9, 2, 7, 1, 7, 6 ];
rr = [| 28, 28, 28, 28, 28, 28, 28, 28, 28, 28, 28, 28, 28, 28, 28, 28, 28, 28, 28, 28, 28, 28, 28, 28, 28, 28, 28, 28, 28, 28
      | 37, 37, 37, 37, 37, 37, 37, 37, 37, 37, 37, 37, 37, 37, 37, 37, 37, 37, 37, 37, 37, 37, 37, 37, 37, 37, 37, 37, 37, 37
      | 35, 35, 35, 35, 35, 35, 35, 35, 35, 35, 35, 35, 35, 35, 35, 35, 35, 35, 35, 35, 35, 35, 35, 35, 35, 35, 35, 35, 35, 35
      | 24, 24, 24, 24, 24, 24, 24, 24, 24, 24, 24, 24, 24, 24, 24, 24, 24, 24, 24, 24, 24, 24, 24, 24, 24, 24, 24, 24, 24, 24|];
suc = [ { 5, 11, 16 },
       { 7, 9, 10 },
       { 4, 15 },
       { 13 },
       { 6, 8, 12 },
       { 17, 20, 22 },
       { 12, 18 },
       { 9, 10 },
       { 17, 21, 25 },
       { 14, 27, 29 },
       { 17, 21, 24 },
       { 13, 21 },
       { 20, 28 },
       { 26 },
       { 25 },
       { 18, 23, 26 },
       { 19 },
       { 19, 28 },
       { 29 },
       { 24 },
       { 30 },
       { 26 },
       { 24, 25 },
       { 27, 29 },
       { 27 },
       { 28, 30 },
       { 30 },
       {  },
       {  },
       {  } ];
